Comps = {frontend0, frontend1, backend0, backend1, database0, database1};
mustComps = {frontend0, frontend1};
Flavs = {tiny, medium, large};
Nodes = {n1, n2, n3};
CRes = {CPU, RAM, storage, bwIn, bwOut};
NRes = {ssl, fwall, encr, avail, latency};
Flav = [{medium, large}, {medium, large}, {tiny, medium, large}, {tiny, medium, large}, {large}, {large}];
Uses = array2d(CompFlavs, CompFlavs, [
	0,0,0,0,1,0,0,0,0,0,0,0,
	0,0,0,0,1,0,0,0,0,0,0,0,
	0,0,0,0,1,0,0,0,0,0,0,0,
	0,0,0,0,1,0,0,0,0,0,0,0,
	0,0,0,0,0,0,0,0,0,0,0,0,
	0,0,0,0,0,0,1,0,0,0,0,0,
	0,0,0,0,0,0,1,0,0,0,0,0,
	0,0,0,0,0,0,0,0,0,0,0,0,
	0,0,0,0,0,0,1,0,0,0,0,0,
	0,0,0,0,0,0,1,0,0,0,0,0,
	0,0,0,0,0,0,0,0,0,0,0,0,
	0,0,0,0,0,0,0,0,0,0,0,0,
]);
mayUse = array2d(Comps, CompFlavs, [
	0,0,0,0,0,0,0,0,0,0,0,0,
	0,0,0,0,0,0,0,0,0,0,0,0,
	1,1,1,1,0,1,1,0,1,1,0,0,
	0,0,0,0,0,0,0,0,0,0,0,0,
	0,0,0,0,0,0,0,0,0,0,0,0,
	0,0,0,0,0,0,0,0,0,0,0,0,
]);
MIN_RBOUNDS = 0;
MAX_RBOUNDS = 1000000;

worstBounds = [0, 0, 0, 0, 0, 0, 0, 0, 0, MAX_RBOUNDS];
bestBounds = [MAX_RBOUNDS - i | i in worstBounds];

comReq = array2d(CompFlavs, Res, [
  2, 338, 475, 552, 563, 1, 1, 1, 95, MAX_RBOUNDS,
  4, 458, 407, 610, 242, 1, 0, 0, 97, MAX_RBOUNDS,
  2, 432, 395, 759, 716, 1, 0, 1, 96, MAX_RBOUNDS,
  2, 475, 340, 508, 724, 1, 1, 0, 97, MAX_RBOUNDS,
  4, 297, 287, 549, 249, 1, 0, 1, 97, MAX_RBOUNDS,
  2, 316, 308, 661, 709, 1, 1, 0, 95, MAX_RBOUNDS,
  2, 214, 218, 239, 663, 1, 0, 0, 95, MAX_RBOUNDS,
  2, 274, 472, 483, 640, 1, 0, 0, 95, MAX_RBOUNDS,
  2, 309, 270, 257, 301, 1, 0, 0, 96, MAX_RBOUNDS,
  4, 496, 289, 686, 812, 1, 1, 1, 96, MAX_RBOUNDS,
  2, 385, 254, 252, 454, 1, 1, 0, 95, MAX_RBOUNDS,
  2, 399, 272, 731, 708, 1, 1, 0, 97, MAX_RBOUNDS,
]);

nodeCap = array2d(Nodes0, Res, [bestBounds[r] | r in Res] ++ [
  16, 77871, 987793, 18211, 22337, 1, 1, 1, 99, 0,
  16, 42548, 683045, 20865, 16832, 1, 1, 1, 98, 0,
  8, 29388, 113648, 14005, 23043, 1, 1, 1, 98, 0,
]);

cost = array2d(Nodes0, Res, [
  0, 0, 0, 0, 0, 0, 0, 0, 0, 0, % no node
  11, 9, 25, 0, 0, 0, 0, 0, 0, 0,
  10, 5, 19, 0, 0, 0, 0, 0, 0, 0,
  20, 5, 17, 0, 0, 0, 0, 0, 0, 0,
]);

carb = array2d(Nodes0, Res, [
  0, 0, 0, 0, 0, 0, 0, 0, 0, 0, % no node
  28, 6, 21, 0, 0, 0, 0, 0, 0, 0,
  41, 24, 39, 0, 0, 0, 0, 0, 0, 0,
  13, 10, 20, 0, 0, 0, 0, 0, 0, 0,
]);

costBudget = 40316;
carbBudget = 49925;

depReq = array4d(Comps, Flavs, Comps, Res, [
  if c1 = frontend0 /\ c2 = backend0 /\ r = N(avail) then
    97
  elseif c1 = frontend0 /\ c2 = backend1 /\ r = N(avail) then
    95
  elseif c1 = frontend1 /\ c2 = backend1 /\ r = N(avail) then
    97
  else
    worstBounds[r]
  endif | c1 in Comps, i in Flavs, c2 in Comps, r in Res]);

linkCap = array3d(Nodes0, Nodes0, Res, [
  if ni = 0 \/ nj = 0 then
    bestBounds[r]
  elseif ni = nj /\ r = N(avail) then
    nodeCap[ni,r]
  elseif {ni, nj} = {n1, n3} /\ r = N(avail) then
    99
  elseif {ni, nj} = {n1, n2} /\ r = N(avail) then
    99
  elseif {ni, nj} = {n2, n3} /\ r = N(avail) then
    99
  else
    worstBounds[r]
  endif | ni in Nodes0, nj in Nodes0, r in Res]);

imp = array2d(Comps, Flavs, [
  5, 7, 9,
  6, 7, 8,
  4, 7, 8,
  3, 5, 6,
  2, 7, 8,
  1, 7, 8,
]);

